db/data/124608954724856226303145821014327708.z3.out
sat
-------------------
779.764321934
